
Starting CP-SAT solver v9.15.6755
Parameters: random_seed: 2026074312 max_time_in_seconds: 2500 log_search_progress: true cp_model_presolve: true linearization_level: 2 num_search_workers: 4 cp_model_probing_level: 2 symmetry_level: 2

Initial satisfaction model '': (model_fingerprint: 0x4d5030e510f78dd0)
#Variables: 724 (598 primary variables)
  - 724 Booleans in [0,1]
#kBoolAnd: 110 (#enforced: 110) (#literals: 330)
#kBoolOr: 110 (#enforced: 110) (#literals: 220)
#kExactlyOne: 87 (#literals: 261)
#kLinear1: 42 (#enforced: 6)
#kLinear2: 336 (#enforced: 336) (#complex_domain: 110)
#kLinear3: 1'600 (#enforced: 6)
#kLinearN: 1'132 (#enforced: 243) (#terms: 9'111)

Starting presolve at 0.00s
  6.57e-04s  0.00e+00d  [DetectDominanceRelations] 
  8.56e-03s  0.00e+00d  [PresolveToFixPoint] #num_loops=3 #num_dual_strengthening=1 
  3.60e-05s  0.00e+00d  [ExtractEncodingFromLinear] #potential_supersets=89 
  2.85e-04s  0.00e+00d  [DetectDuplicateColumns] 
  1.03e-04s  0.00e+00d  [DetectDuplicateConstraints] #duplicates=14 
[Symmetry] Graph for symmetry has 4'816 nodes and 15'302 arcs.
[Symmetry] Symmetry computation done. time: 0.00123638 dtime: 0.00176442
[SAT presolve] num removable Booleans: 220 / 608
[SAT presolve] num trivial clauses: 0
[SAT presolve] [0s] clauses:2'677 literals:7'314 vars:501 one_side_vars:61 simple_definition:1 singleton_clauses:0
[SAT presolve] [0.000224953s] clauses:2'676 literals:7'307 vars:501 one_side_vars:61 simple_definition:1 singleton_clauses:0
[SAT presolve] [0.00066473s] clauses:2'204 literals:6'510 vars:376 one_side_vars:67 simple_definition:62 singleton_clauses:0
  1.22e-04s  0.00e+00d  [DetectDuplicateConstraintsWithDifferentEnforcements] #without_enforcements=4 
  5.26e-03s  2.11e-03d  [Probe] #probed=1'258 #fixed_bools=10 #equiv=8 #new_binary_clauses=773 
  4.81e-04s  2.76e-04d  [MaxClique] Merged 543 constraints with 1'246 literals into 473 constraints with 1'129 literals
  8.41e-04s  0.00e+00d  [DetectDominanceRelations] 
  3.05e-03s  0.00e+00d  [PresolveToFixPoint] #num_loops=1 #num_dual_strengthening=1 
  1.22e-03s  0.00e+00d  [ProcessAtMostOneAndLinear] #num_changes=3 
  9.72e-05s  0.00e+00d  [DetectDuplicateConstraints] #duplicates=4 
  8.58e-05s  0.00e+00d  [DetectDuplicateConstraintsWithDifferentEnforcements] 
  1.08e-03s  6.26e-05d  [DetectDominatedLinearConstraints] #relevant_constraints=813 #num_inclusions=334 #num_redundant=5 
  1.26e-04s  0.00e+00d  [DetectDifferentVariables] 
  7.32e-04s  8.39e-05d  [ProcessSetPPC] #relevant_constraints=2'939 #num_inclusions=89 
  2.74e-04s  3.38e-05d  [TransformClausesToExactlyOne] #num_amos=478 #num_clauses=1'667 #num_checked=1'667 
  5.16e-05s  0.00e+00d  [DetectEncodedComplexDomains] 
  3.31e-05s  1.00e-07d  [FindAlmostIdenticalLinearConstraints] #num_tested_pairs=1 
  8.96e-04s  1.39e-03d  [FindBigAtMostOneAndLinearOverlap] 
  1.26e-03s  1.10e-03d  [FindBigVerticalLinearOverlap] #blocks=3 #saved_nz=137 
  3.80e-04s  6.67e-04d  [FindBigHorizontalLinearOverlap] #linears=451 
  3.26e-04s  2.68e-05d  [MergeClauses] #num_collisions=22 #num_merges=22 #num_saved_literals=110 
  8.09e-04s  0.00e+00d  [DetectDominanceRelations] 
  3.02e-03s  0.00e+00d  [PresolveToFixPoint] #num_loops=2 #num_dual_strengthening=1 
  7.95e-04s  0.00e+00d  [DetectDominanceRelations] 
  2.90e-03s  0.00e+00d  [PresolveToFixPoint] #num_loops=1 #num_dual_strengthening=1 
  1.71e-04s  0.00e+00d  [DetectDuplicateColumns] 
  8.66e-05s  0.00e+00d  [DetectDuplicateConstraints] 
[Symmetry] Graph for symmetry has 4'242 nodes and 13'268 arcs.
[Symmetry] Symmetry computation done. time: 0.000932061 dtime: 0.0012788
[SAT presolve] num removable Booleans: 94 / 464
[SAT presolve] num trivial clauses: 0
[SAT presolve] [0s] clauses:2'095 literals:6'221 vars:438 one_side_vars:138 simple_definition:81 singleton_clauses:0
[SAT presolve] [0.000219583s] clauses:2'095 literals:6'048 vars:438 one_side_vars:179 simple_definition:75 singleton_clauses:0
[SAT presolve] [0.000307077s] clauses:2'083 literals:6'039 vars:432 one_side_vars:181 simple_definition:61 singleton_clauses:0
  1.50e-04s  0.00e+00d  [DetectDuplicateConstraintsWithDifferentEnforcements] 
  5.56e-03s  1.93e-03d  [Probe] #probed=1'248 #new_binary_clauses=547 
  4.00e-04s  2.88e-04d  [MaxClique] Merged 471 constraints with 1'055 literals into 459 constraints with 1'053 literals
  8.19e-04s  0.00e+00d  [DetectDominanceRelations] 
  2.95e-03s  0.00e+00d  [PresolveToFixPoint] #num_loops=1 #num_dual_strengthening=1 
  1.10e-03s  0.00e+00d  [ProcessAtMostOneAndLinear] 
  1.39e-04s  0.00e+00d  [DetectDuplicateConstraints] 
  9.49e-05s  0.00e+00d  [DetectDuplicateConstraintsWithDifferentEnforcements] 
  1.34e-03s  6.00e-05d  [DetectDominatedLinearConstraints] #relevant_constraints=812 #num_inclusions=307 #num_redundant=1 
  1.19e-04s  0.00e+00d  [DetectDifferentVariables] 
  7.11e-04s  7.28e-05d  [ProcessSetPPC] #relevant_constraints=2'977 #num_inclusions=86 
  2.63e-04s  3.29e-05d  [TransformClausesToExactlyOne] #num_amos=461 #num_clauses=1'659 #num_checked=1'659 
  5.68e-05s  0.00e+00d  [DetectEncodedComplexDomains] 
  3.92e-05s  1.60e-07d  [FindAlmostIdenticalLinearConstraints] #num_tested_pairs=2 
  8.28e-04s  1.16e-03d  [FindBigAtMostOneAndLinearOverlap] 
  1.19e-03s  9.66e-04d  [FindBigVerticalLinearOverlap] #blocks=3 #saved_nz=186 
  3.65e-04s  5.94e-04d  [FindBigHorizontalLinearOverlap] #linears=453 
  3.16e-04s  2.59e-05d  [MergeClauses] #num_collisions=74 #num_merges=74 #num_saved_literals=214 
  8.09e-04s  0.00e+00d  [DetectDominanceRelations] 
  2.96e-03s  0.00e+00d  [PresolveToFixPoint] #num_loops=2 #num_dual_strengthening=1 
  8.36e-04s  0.00e+00d  [DetectDominanceRelations] 
  2.93e-03s  0.00e+00d  [PresolveToFixPoint] #num_loops=1 #num_dual_strengthening=1 
  2.08e-04s  0.00e+00d  [DetectDuplicateColumns] 
  9.45e-05s  0.00e+00d  [DetectDuplicateConstraints] 
[Symmetry] Graph for symmetry has 4'178 nodes and 12'732 arcs.
[Symmetry] Symmetry computation done. time: 0.000850579 dtime: 0.00120675
[SAT presolve] num removable Booleans: 88 / 458
[SAT presolve] num trivial clauses: 0
[SAT presolve] [0s] clauses:2'066 literals:6'001 vars:432 one_side_vars:181 simple_definition:61 singleton_clauses:0
[SAT presolve] [0.00019181s] clauses:2'066 literals:6'001 vars:432 one_side_vars:181 simple_definition:61 singleton_clauses:0
[SAT presolve] [0.000250851s] clauses:2'066 literals:6'001 vars:432 one_side_vars:181 simple_definition:61 singleton_clauses:0
  1.41e-04s  0.00e+00d  [DetectDuplicateConstraintsWithDifferentEnforcements] 
  5.38e-03s  1.91e-03d  [Probe] #probed=1'248 #new_binary_clauses=547 
  3.97e-04s  2.77e-04d  [MaxClique] 
  8.24e-04s  0.00e+00d  [DetectDominanceRelations] 
  2.93e-03s  0.00e+00d  [PresolveToFixPoint] #num_loops=1 #num_dual_strengthening=1 
  1.06e-03s  0.00e+00d  [ProcessAtMostOneAndLinear] 
  1.03e-04s  0.00e+00d  [DetectDuplicateConstraints] 
  1.14e-04s  0.00e+00d  [DetectDuplicateConstraintsWithDifferentEnforcements] 
  6.98e-04s  4.77e-05d  [DetectDominatedLinearConstraints] #relevant_constraints=815 #num_inclusions=258 #num_redundant=1 
  1.23e-04s  0.00e+00d  [DetectDifferentVariables] 
  7.03e-04s  6.76e-05d  [ProcessSetPPC] #relevant_constraints=2'977 #num_inclusions=63 
  2.84e-04s  3.29e-05d  [TransformClausesToExactlyOne] #num_amos=457 #num_clauses=1'659 #num_checked=1'659 
  5.19e-05s  0.00e+00d  [DetectEncodedComplexDomains] 
  5.92e-05s  0.00e+00d  [FindAlmostIdenticalLinearConstraints] 
  7.36e-04s  9.50e-04d  [FindBigAtMostOneAndLinearOverlap] 
  1.02e-03s  7.80e-04d  [FindBigVerticalLinearOverlap] 
  3.73e-04s  5.67e-04d  [FindBigHorizontalLinearOverlap] #linears=453 
  3.21e-04s  2.59e-05d  [MergeClauses] #num_collisions=74 #num_merges=74 #num_saved_literals=214 
  8.33e-04s  0.00e+00d  [DetectDominanceRelations] 
  2.93e-03s  0.00e+00d  [PresolveToFixPoint] #num_loops=1 #num_dual_strengthening=1 
  2.93e-05s  0.00e+00d  [MergeNoOverlap] 
  3.03e-05s  0.00e+00d  [MergeNoOverlap2D] 

Presolve summary:
  - 32 affine relations were detected.
  - rule 'TODO dual: only one blocking constraint?' was applied 812 times.
  - rule 'TODO dual: tighten at most one' was applied 8 times.
  - rule 'TODO linear inclusion: superset is equality' was applied 104 times.
  - rule 'affine: new relation' was applied 32 times.
  - rule 'at_most_one: removed literals' was applied 57 times.
  - rule 'at_most_one: size one' was applied 56 times.
  - rule 'at_most_one: transformed into max clique' was applied 2 times.
  - rule 'bool_or: implications' was applied 76 times.
  - rule 'bool_or: only one literal' was applied 12 times.
  - rule 'bool_or: removed enforcement literal' was applied 557 times.
  - rule 'deductions: 673 stored' was applied 1 time.
  - rule 'duplicate: merged rhs of linear constraint' was applied 17 times.
  - rule 'duplicate: removed constraint' was applied 18 times.
  - rule 'duplicate: removed enforced constraint' was applied 4 times.
  - rule 'enforcement: false literal' was applied 46 times.
  - rule 'enforcement: true literal' was applied 16 times.
  - rule 'exactly_one: removed literals' was applied 27 times.
  - rule 'exactly_one: satisfied' was applied 13 times.
  - rule 'exactly_one: singleton' was applied 3 times.
  - rule 'exactly_one: size two' was applied 24 times.
  - rule 'exactly_one: x and not(x)' was applied 6 times.
  - rule 'incompatible linear: add implication' was applied 114 times.
  - rule 'linear + amo: empty after processing' was applied 5 times.
  - rule 'linear + amo: extracted enforcement literal' was applied 80 times.
  - rule 'linear + amo: fixed literal implied by enforcement' was applied 3 times.
  - rule 'linear + amo: trivial linear constraint' was applied 1 time.
  - rule 'linear inclusion: redundant containing constraint' was applied 1 time.
  - rule 'linear inclusion: redundant included constraint' was applied 3 times.
  - rule 'linear inclusion: sparsify superset' was applied 3 times.
  - rule 'linear matrix: common vertical rectangle' was applied 6 times.
  - rule 'linear1: x in domain' was applied 36 times.
  - rule 'linear2: convert ax + by != cte to clauses' was applied 258 times.
  - rule 'linear2: convert implied ax + by == cte to clauses' was applied 114 times.
  - rule 'linear2: implied ax + by = cte has only one solution' was applied 8 times.
  - rule 'linear: always true' was applied 415 times.
  - rule 'linear: coefficient strengthening by increasing it' was applied 2 times.
  - rule 'linear: empty' was applied 1 time.
  - rule 'linear: extracted at most one (max)' was applied 1 time.
  - rule 'linear: fixed or dup variables' was applied 879 times.
  - rule 'linear: negative clause' was applied 1'294 times.
  - rule 'linear: negative reified and' was applied 68 times.
  - rule 'linear: never in domain' was applied 5 times.
  - rule 'linear: positive at most one' was applied 40 times.
  - rule 'linear: positive equal one' was applied 1 time.
  - rule 'linear: reduced variable domains' was applied 7 times.
  - rule 'linear: remapped using affine relations' was applied 22 times.
  - rule 'presolve: 100 unused variables removed.' was applied 1 time.
  - rule 'presolve: iteration' was applied 3 times.
  - rule 'probing: bool_or reduced to implication' was applied 40 times.
  - rule 'probing: simplified clauses' was applied 9 times.
  - rule 'setppc: bool_or in at_most_one' was applied 8 times.
  - rule 'setppc: exactly_one included in linear' was applied 1 time.
  - rule 'setppc: reduced linear coefficients' was applied 1 time.
  - rule 'setppc: removed dominated constraints' was applied 77 times.

Presolved satisfaction model '': (model_fingerprint: 0x345ebe8a8e91bdeb)
#Variables: 464 (400 primary variables)
  - 458 Booleans in [0,1]
  - 2 in [0,2]
  - 2 in [0,3]
  - 1 in [0,4]
  - 1 in [0,5]
#kAtMostOne: 50 (#literals: 213)
#kBoolAnd: 246 (#enforced: 246) (#literals: 653)
#kBoolAndClauses: 74 (#enforced: 74 #multi: 74) (#literals: 362)
#kBoolOr: 1'511 (#literals: 4'611)
#kExactlyOne: 47 (#literals: 194)
#kLinear3: 1
#kLinearN: 814 (#enforced: 119 #multi: 1) (#terms: 5'424)
[Symmetry] Graph for symmetry has 3'912 nodes and 12'720 arcs.
[Symmetry] Symmetry computation done. time: 0.000809422 dtime: 0.00118982

Preloading model.
#Model   0.09s var:464/464 constraints:2743/2743

Starting search at 0.09s with 4 workers.
3 full problem subsolvers: [default_lp, max_lp, no_lp]
1 first solution subsolver: [fj]
2 interleaved subsolvers: [feasibility_pump, rins/rens]
2 helper subsolvers: [neighborhood_helper, synchronization_agent]

#Model  25.74s var:463/464 constraints:2741/2743
#Model  43.87s var:462/464 constraints:2723/2743
#Model 122.03s var:461/464 constraints:2721/2743
#Model 654.35s var:460/464 constraints:2720/2743
#Model 2084.70s var:459/464 constraints:2698/2743

Task timing                   n [     min,      max]      avg      dev     time         n [     min,      max]      avg      dev    dtime
        'default_lp':         1 [  41.67m,   41.67m]   41.67m   0.00ns   41.67m         2 [  2.06ms,   42.38m]   21.19m   21.19m   42.38m
  'feasibility_pump':     12396 [ 35.69us, 116.79ms]   1.54ms   1.08ms   19.05s     12394 [272.26us, 102.14ms] 282.18us 914.95us    3.50s
                'fj':      8973 [109.24ms, 236.74ms] 138.15ms   9.35ms   20.66m      8973 [100.00ms, 100.15ms] 100.02ms  15.30us   14.96m
            'max_lp':         1 [  41.67m,   41.67m]   41.67m   0.00ns   41.67m         2 [ 87.72ms,   55.01m]   27.51m   27.50m   55.01m
             'no_lp':         1 [  41.67m,   41.67m]   41.67m   0.00ns   41.67m         2 [  1.72ms,    1.52h]   45.68m   45.68m    1.52h
         'rins/rens':     11425 [ 20.75ms, 208.63ms] 108.51ms  41.12ms   20.66m     11425 [119.91us, 100.42ms]  68.04ms  37.39ms   12.96m

Search stats     Bools   Conflicts    Branches  Restarts  BacktrackToRoot   Backtrack     BoolPropag  IntegerPropag
  'default_lp':    458     228'834   7'213'252     1'304        1'028'249   1'524'011     68'018'913     82'690'340
      'max_lp':    458     114'169  10'295'118       625        1'474'866   1'941'230     94'314'959    122'482'934
       'no_lp':    458  22'489'811  29'363'633    77'386          486'309  22'757'635  1'877'967'524    443'355'359

SAT formula      Fixed  Equiv  Total  VarLeft  BinaryClauses  PermanentClauses  TemporaryClauses
  'default_lp':      5      3    458      450          2'184            49'641             5'731
      'max_lp':      5      3    458      450          2'184            48'862             6'691
       'no_lp':      5      3    458      450          2'184           139'376            11'514

SAT stats        ClassicMinim   LitRemoved  LitRemovedBinary   LitLearned  LitForgotten   Subsumed
  'default_lp':       194'046    2'310'787         1'121'784    6'399'308     4'111'343     87'502
      'max_lp':        97'804    1'182'655           539'300    2'647'562     1'424'146     42'418
       'no_lp':    20'276'361  332'159'219        85'632'629  514'144'500   395'740'061  6'597'539

Vivification       Clauses  Decisions  LitTrue  Subsumed  LitRemoved  DecisionReused  Conflicts
  'default_lp':  1'048'879  6'684'842        3    14'457     161'006         323'916      1'511
      'max_lp':  1'491'948  9'817'711        0    15'607     178'666         422'608      1'620
       'no_lp':    338'387  2'978'693        0    23'179     309'650          87'453      1'146

Clause deletion    at_true  l_and_not(l)  to_binary  sub_conflict  sub_extra  sub_decisions  sub_eager  sub_vivify  sub_probing  sub_inpro  blocked  eliminated   forgotten    promoted   conflicts
    'default_lp':    1'767             0          5        85'978        589          3'854      1'524      14'457        2'056     14'591        0           0     117'140     442'716     228'834
        'max_lp':    2'649             1          5        41'922        252          1'330        496      15'607        1'181     12'426        0           0      50'178     213'893     114'169
         'no_lp':   16'353             0          7     6'483'917     39'439        319'388    113'622      23'179        3'653    125'793        0           0  15'219'482  50'430'547  22'489'811

Lp stats         Component  Iterations  AddedCuts  OPTIMAL  DUAL_F.  DUAL_U.
  'default_lp':          1  30'946'656     86'899  320'998        1  183'020
      'max_lp':          1  14'637'977     83'123   44'024   85'853   39'142

Lp dimension        Final dimension of first component
  'default_lp':    322 rows, 333 columns, 8204 entries
      'max_lp':  1688 rows, 464 columns, 43884 entries

Lp debug         CutPropag  CutEqPropag   Adjust  Overflow        Bad  BadScaling
  'default_lp':          0           13  183'018         0  2'804'784           0
      'max_lp':          0           69   39'140         0  2'531'842           0

Lp pool          Constraints  Updates  Simplif  Merged  Shortened  Split  Strengthened       Cuts/Call
  'default_lp':       10'671   17'033    1'132       0      1'221    236             0  86'899/103'110
      'max_lp':       12'179   24'643    1'194       2      1'275    443         1'911  83'123/115'213

Lp Cut            default_lp  max_lp
          CG_FF:         867      83
           CG_K:         439       8
          CG_KL:         422       4
           CG_R:         900      39
          CG_RB:           9       7
         CG_RBP:           5       -
         Clique:           -     125
             IB:          27      25
       MIR_1_FF:         500     852
        MIR_1_K:          76      49
       MIR_1_KL:         370      76
        MIR_1_R:         423     599
      MIR_1_RLT:           -   7'224
       MIR_2_FF:         407     811
        MIR_2_K:          71     157
       MIR_2_KL:         232     134
        MIR_2_R:         512   1'065
       MIR_2_RB:           2       -
      MIR_2_RBP:           2       -
       MIR_3_FF:         228     185
        MIR_3_K:          29      34
       MIR_3_KL:          93      21
        MIR_3_R:         301     325
       MIR_3_RB:           3       -
      MIR_3_RBP:           1       1
       MIR_4_FF:          72      34
        MIR_4_K:           9      11
       MIR_4_KL:          27       7
        MIR_4_R:         243     254
       MIR_4_RB:           1       -
       MIR_5_FF:          20      17
        MIR_5_K:           3       -
       MIR_5_KL:           4       -
        MIR_5_R:         186     241
       MIR_5_RB:           2       -
      MIR_5_RBP:           -       1
       MIR_6_FF:          12      10
        MIR_6_K:           2       3
       MIR_6_KL:           1       -
        MIR_6_R:         132     229
       MIR_6_RB:           2       -
      MIR_6_RBP:           -       4
   ZERO_HALF_FF:         390     424
    ZERO_HALF_K:          54      17
   ZERO_HALF_KL:          98       2
    ZERO_HALF_R:      79'262  69'787
   ZERO_HALF_RB:           1       3
  ZERO_HALF_RBP:         459     255

LNS stats       Improv/Calls  Closed  Difficulty  TimeLimit
  'rins/rens':   11425/11425     50%    7.38e-01       0.10

LS stats                                    Batches  Restarts/Perturbs    LinMoves    GenMoves  CompoundMoves  Bactracks  WeightUpdates  ScoreComputed
                             'fj_restart':      468                123  13'171'693           0              0          0     11'835'930     25'807'975
                    'fj_restart_compound':      612                132           0   6'276'838        294'003  2'991'146         18'299    111'962'147
                'fj_restart_compound_obj':      366                142           0   3'757'888        293'072  1'732'128          7'892     66'269'827
            'fj_restart_compound_perturb':      507                 99           0   5'361'894        272'394  2'544'564         13'732     92'443'053
        'fj_restart_compound_perturb_obj':      745                129           0   7'748'071        328'978  3'709'263         22'350    136'594'828
                       'fj_restart_decay':      357                115  10'844'344           0              0          0        482'168      6'233'384
              'fj_restart_decay_compound':      288                131           0   3'121'806        516'020  1'302'517          3'736     52'179'979
          'fj_restart_decay_compound_obj':    1'164                128           0  14'162'590      2'307'210  5'927'392         14'561    212'491'138
      'fj_restart_decay_compound_perturb':      791                116           0   9'490'838      1'550'219  3'970'068          9'933    144'290'400
  'fj_restart_decay_compound_perturb_obj':      382                100           0   4'388'481        716'979  1'835'572          4'864     69'488'827
                   'fj_restart_decay_obj':      517                107  15'722'604           0              0          0        698'288      9'014'668
               'fj_restart_decay_perturb':      580                134  17'635'527           0              0          0        783'043     10'109'364
           'fj_restart_decay_perturb_obj':      443                132  13'467'501           0              0          0        598'474      7'724'571
                         'fj_restart_obj':      693                128  20'374'985           0              0          0     16'983'945     40'985'453
                     'fj_restart_perturb':      677                127  19'260'604           0              0          0     17'485'990     39'238'295
                 'fj_restart_perturb_obj':      383                131  10'889'968           0              0          0      9'453'475     21'158'551

Solution repositories    Added  Queried  Synchro
    'alternative_path':      0        0        0
      'best_solutions':      0        0        0
   'fj solution hints':  1'966        0    1'966
        'lp solutions':  1'184   11'425    1'184
                'pump':      0        0

Improving bounds shared    Num  Sym
            'default_lp':    5    0
                 'no_lp':    1    0

Clauses shared    #Exported  #Imported  #BinaryRead  #BinaryTotal
   'default_lp':      2'240     67'141          362           362
       'max_lp':      2'041     67'125          362           362
        'no_lp':     66'806      4'817          362           362

LRAT_status: NA
CpSolverResponse summary:
status: UNKNOWN
objective: NA
best_bound: NA
integers: 346
booleans: 458
conflicts: 228834
branches: 7213252
propagations: 68018913
integer_propagations: 82690340
restarts: 1304
lp_iterations: 30946656
walltime: 2500.03
usertime: 2500.03
deterministic_time: 13003.1
gap_integral: 0

{
  "board_size": 22,
  "parity_proved": 0,
  "target": 34,
  "child_id": 2212,
  "child_count": 2640,
  "partition": "unknown_pair_x_diag_plus_twos_x_diag_minus_twos",
  "build_seconds": 0.0760350227355957,
  "workers": 4,
  "requested_seed": 2026074312,
  "effective_seed": 2026074312,
  "main_diagonal_pair": [
    5,
    13
  ],
  "pair_index": 92,
  "diag_plus_twos": 16,
  "diag_minus_twos": 16,
  "pair_excess": 22,
  "residual_certificate_slack": 90,
  "analytic_minimum_line_defect": 24,
  "analytic_defect_details": {
    "row_costs": {
      "12": 6,
      "13": 3,
      "14": 0,
      "15": 0,
      "16": 0,
      "17": 0
    },
    "column_costs": {
      "12": 6,
      "13": 3,
      "14": 0,
      "15": 0,
      "16": 0,
      "17": 0
    },
    "plus_cost": 24,
    "minus_cost": 0,
    "row_column_minimum": 0
  },
  "maximal_line_constraints": 2455,
  "analytic_infeasible": false,
  "allowed_points": 242,
  "status": "UNKNOWN",
  "proof_method": "cp_sat_all_lines_with_certificate_profile_cuts",
  "elapsed_seconds": 2500.0306990146637,
  "branches": 7213252,
  "conflicts": 228834
}
